c description: Graph pigeonhole principle formula on fast_gnp_random_graph(20,5,0.9)
c generator: CNFgen (0.9.0)
c copyright: (C) 2012-2020 Massimo Lauria <massimo.lauria@uniroma1.it>
c url: https://massimolauria.net/cnfgen
c
p cnf 95 876
1 2 3 4 5 0
6 7 8 9 10 0
11 12 13 14 15 0
16 17 18 19 20 0
21 22 23 24 25 0
26 27 28 29 30 0
31 32 33 34 35 0
36 37 38 39 0
40 41 42 43 44 0
45 46 47 0
48 49 50 51 52 0
53 54 55 56 57 0
58 59 60 61 0
62 63 64 65 66 0
67 68 69 70 71 0
72 73 74 75 0
76 77 78 79 80 0
81 82 83 84 85 0
86 87 88 89 90 0
91 92 93 94 95 0
-1 -6 0
-1 -11 0
-1 -16 0
-1 -21 0
-1 -26 0
-1 -31 0
-1 -36 0
-1 -40 0
-1 -48 0
-1 -53 0
-1 -58 0
-1 -62 0
-1 -67 0
-1 -72 0
-1 -76 0
-1 -81 0
-1 -86 0
-1 -91 0
-6 -11 0
-6 -16 0
-6 -21 0
-6 -26 0
-6 -31 0
-6 -36 0
-6 -40 0
-6 -48 0
-6 -53 0
-6 -58 0
-6 -62 0
-6 -67 0
-6 -72 0
-6 -76 0
-6 -81 0
-6 -86 0
-6 -91 0
-11 -16 0
-11 -21 0
-11 -26 0
-11 -31 0
-11 -36 0
-11 -40 0
-11 -48 0
-11 -53 0
-11 -58 0
-11 -62 0
-11 -67 0
-11 -72 0
-11 -76 0
-11 -81 0
-11 -86 0
-11 -91 0
-16 -21 0
-16 -26 0
-16 -31 0
-16 -36 0
-16 -40 0
-16 -48 0
-16 -53 0
-16 -58 0
-16 -62 0
-16 -67 0
-16 -72 0
-16 -76 0
-16 -81 0
-16 -86 0
-16 -91 0
-21 -26 0
-21 -31 0
-21 -36 0
-21 -40 0
-21 -48 0
-21 -53 0
-21 -58 0
-21 -62 0
-21 -67 0
-21 -72 0
-21 -76 0
-21 -81 0
-21 -86 0
-21 -91 0
-26 -31 0
-26 -36 0
-26 -40 0
-26 -48 0
-26 -53 0
-26 -58 0
-26 -62 0
-26 -67 0
-26 -72 0
-26 -76 0
-26 -81 0
-26 -86 0
-26 -91 0
-31 -36 0
-31 -40 0
-31 -48 0
-31 -53 0
-31 -58 0
-31 -62 0
-31 -67 0
-31 -72 0
-31 -76 0
-31 -81 0
-31 -86 0
-31 -91 0
-36 -40 0
-36 -48 0
-36 -53 0
-36 -58 0
-36 -62 0
-36 -67 0
-36 -72 0
-36 -76 0
-36 -81 0
-36 -86 0
-36 -91 0
-40 -48 0
-40 -53 0
-40 -58 0
-40 -62 0
-40 -67 0
-40 -72 0
-40 -76 0
-40 -81 0
-40 -86 0
-40 -91 0
-48 -53 0
-48 -58 0
-48 -62 0
-48 -67 0
-48 -72 0
-48 -76 0
-48 -81 0
-48 -86 0
-48 -91 0
-53 -58 0
-53 -62 0
-53 -67 0
-53 -72 0
-53 -76 0
-53 -81 0
-53 -86 0
-53 -91 0
-58 -62 0
-58 -67 0
-58 -72 0
-58 -76 0
-58 -81 0
-58 -86 0
-58 -91 0
-62 -67 0
-62 -72 0
-62 -76 0
-62 -81 0
-62 -86 0
-62 -91 0
-67 -72 0
-67 -76 0
-67 -81 0
-67 -86 0
-67 -91 0
-72 -76 0
-72 -81 0
-72 -86 0
-72 -91 0
-76 -81 0
-76 -86 0
-76 -91 0
-81 -86 0
-81 -91 0
-86 -91 0
-2 -7 0
-2 -12 0
-2 -17 0
-2 -22 0
-2 -27 0
-2 -32 0
-2 -37 0
-2 -41 0
-2 -45 0
-2 -49 0
-2 -54 0
-2 -63 0
-2 -68 0
-2 -73 0
-2 -77 0
-2 -82 0
-2 -87 0
-2 -92 0
-7 -12 0
-7 -17 0
-7 -22 0
-7 -27 0
-7 -32 0
-7 -37 0
-7 -41 0
-7 -45 0
-7 -49 0
-7 -54 0
-7 -63 0
-7 -68 0
-7 -73 0
-7 -77 0
-7 -82 0
-7 -87 0
-7 -92 0
-12 -17 0
-12 -22 0
-12 -27 0
-12 -32 0
-12 -37 0
-12 -41 0
-12 -45 0
-12 -49 0
-12 -54 0
-12 -63 0
-12 -68 0
-12 -73 0
-12 -77 0
-12 -82 0
-12 -87 0
-12 -92 0
-17 -22 0
-17 -27 0
-17 -32 0
-17 -37 0
-17 -41 0
-17 -45 0
-17 -49 0
-17 -54 0
-17 -63 0
-17 -68 0
-17 -73 0
-17 -77 0
-17 -82 0
-17 -87 0
-17 -92 0
-22 -27 0
-22 -32 0
-22 -37 0
-22 -41 0
-22 -45 0
-22 -49 0
-22 -54 0
-22 -63 0
-22 -68 0
-22 -73 0
-22 -77 0
-22 -82 0
-22 -87 0
-22 -92 0
-27 -32 0
-27 -37 0
-27 -41 0
-27 -45 0
-27 -49 0
-27 -54 0
-27 -63 0
-27 -68 0
-27 -73 0
-27 -77 0
-27 -82 0
-27 -87 0
-27 -92 0
-32 -37 0
-32 -41 0
-32 -45 0
-32 -49 0
-32 -54 0
-32 -63 0
-32 -68 0
-32 -73 0
-32 -77 0
-32 -82 0
-32 -87 0
-32 -92 0
-37 -41 0
-37 -45 0
-37 -49 0
-37 -54 0
-37 -63 0
-37 -68 0
-37 -73 0
-37 -77 0
-37 -82 0
-37 -87 0
-37 -92 0
-41 -45 0
-41 -49 0
-41 -54 0
-41 -63 0
-41 -68 0
-41 -73 0
-41 -77 0
-41 -82 0
-41 -87 0
-41 -92 0
-45 -49 0
-45 -54 0
-45 -63 0
-45 -68 0
-45 -73 0
-45 -77 0
-45 -82 0
-45 -87 0
-45 -92 0
-49 -54 0
-49 -63 0
-49 -68 0
-49 -73 0
-49 -77 0
-49 -82 0
-49 -87 0
-49 -92 0
-54 -63 0
-54 -68 0
-54 -73 0
-54 -77 0
-54 -82 0
-54 -87 0
-54 -92 0
-63 -68 0
-63 -73 0
-63 -77 0
-63 -82 0
-63 -87 0
-63 -92 0
-68 -73 0
-68 -77 0
-68 -82 0
-68 -87 0
-68 -92 0
-73 -77 0
-73 -82 0
-73 -87 0
-73 -92 0
-77 -82 0
-77 -87 0
-77 -92 0
-82 -87 0
-82 -92 0
-87 -92 0
-3 -8 0
-3 -13 0
-3 -18 0
-3 -23 0
-3 -28 0
-3 -33 0
-3 -38 0
-3 -42 0
-3 -46 0
-3 -50 0
-3 -55 0
-3 -59 0
-3 -64 0
-3 -69 0
-3 -74 0
-3 -78 0
-3 -83 0
-3 -88 0
-3 -93 0
-8 -13 0
-8 -18 0
-8 -23 0
-8 -28 0
-8 -33 0
-8 -38 0
-8 -42 0
-8 -46 0
-8 -50 0
-8 -55 0
-8 -59 0
-8 -64 0
-8 -69 0
-8 -74 0
-8 -78 0
-8 -83 0
-8 -88 0
-8 -93 0
-13 -18 0
-13 -23 0
-13 -28 0
-13 -33 0
-13 -38 0
-13 -42 0
-13 -46 0
-13 -50 0
-13 -55 0
-13 -59 0
-13 -64 0
-13 -69 0
-13 -74 0
-13 -78 0
-13 -83 0
-13 -88 0
-13 -93 0
-18 -23 0
-18 -28 0
-18 -33 0
-18 -38 0
-18 -42 0
-18 -46 0
-18 -50 0
-18 -55 0
-18 -59 0
-18 -64 0
-18 -69 0
-18 -74 0
-18 -78 0
-18 -83 0
-18 -88 0
-18 -93 0
-23 -28 0
-23 -33 0
-23 -38 0
-23 -42 0
-23 -46 0
-23 -50 0
-23 -55 0
-23 -59 0
-23 -64 0
-23 -69 0
-23 -74 0
-23 -78 0
-23 -83 0
-23 -88 0
-23 -93 0
-28 -33 0
-28 -38 0
-28 -42 0
-28 -46 0
-28 -50 0
-28 -55 0
-28 -59 0
-28 -64 0
-28 -69 0
-28 -74 0
-28 -78 0
-28 -83 0
-28 -88 0
-28 -93 0
-33 -38 0
-33 -42 0
-33 -46 0
-33 -50 0
-33 -55 0
-33 -59 0
-33 -64 0
-33 -69 0
-33 -74 0
-33 -78 0
-33 -83 0
-33 -88 0
-33 -93 0
-38 -42 0
-38 -46 0
-38 -50 0
-38 -55 0
-38 -59 0
-38 -64 0
-38 -69 0
-38 -74 0
-38 -78 0
-38 -83 0
-38 -88 0
-38 -93 0
-42 -46 0
-42 -50 0
-42 -55 0
-42 -59 0
-42 -64 0
-42 -69 0
-42 -74 0
-42 -78 0
-42 -83 0
-42 -88 0
-42 -93 0
-46 -50 0
-46 -55 0
-46 -59 0
-46 -64 0
-46 -69 0
-46 -74 0
-46 -78 0
-46 -83 0
-46 -88 0
-46 -93 0
-50 -55 0
-50 -59 0
-50 -64 0
-50 -69 0
-50 -74 0
-50 -78 0
-50 -83 0
-50 -88 0
-50 -93 0
-55 -59 0
-55 -64 0
-55 -69 0
-55 -74 0
-55 -78 0
-55 -83 0
-55 -88 0
-55 -93 0
-59 -64 0
-59 -69 0
-59 -74 0
-59 -78 0
-59 -83 0
-59 -88 0
-59 -93 0
-64 -69 0
-64 -74 0
-64 -78 0
-64 -83 0
-64 -88 0
-64 -93 0
-69 -74 0
-69 -78 0
-69 -83 0
-69 -88 0
-69 -93 0
-74 -78 0
-74 -83 0
-74 -88 0
-74 -93 0
-78 -83 0
-78 -88 0
-78 -93 0
-83 -88 0
-83 -93 0
-88 -93 0
-4 -9 0
-4 -14 0
-4 -19 0
-4 -24 0
-4 -29 0
-4 -34 0
-4 -43 0
-4 -47 0
-4 -51 0
-4 -56 0
-4 -60 0
-4 -65 0
-4 -70 0
-4 -79 0
-4 -84 0
-4 -89 0
-4 -94 0
-9 -14 0
-9 -19 0
-9 -24 0
-9 -29 0
-9 -34 0
-9 -43 0
-9 -47 0
-9 -51 0
-9 -56 0
-9 -60 0
-9 -65 0
-9 -70 0
-9 -79 0
-9 -84 0
-9 -89 0
-9 -94 0
-14 -19 0
-14 -24 0
-14 -29 0
-14 -34 0
-14 -43 0
-14 -47 0
-14 -51 0
-14 -56 0
-14 -60 0
-14 -65 0
-14 -70 0
-14 -79 0
-14 -84 0
-14 -89 0
-14 -94 0
-19 -24 0
-19 -29 0
-19 -34 0
-19 -43 0
-19 -47 0
-19 -51 0
-19 -56 0
-19 -60 0
-19 -65 0
-19 -70 0
-19 -79 0
-19 -84 0
-19 -89 0
-19 -94 0
-24 -29 0
-24 -34 0
-24 -43 0
-24 -47 0
-24 -51 0
-24 -56 0
-24 -60 0
-24 -65 0
-24 -70 0
-24 -79 0
-24 -84 0
-24 -89 0
-24 -94 0
-29 -34 0
-29 -43 0
-29 -47 0
-29 -51 0
-29 -56 0
-29 -60 0
-29 -65 0
-29 -70 0
-29 -79 0
-29 -84 0
-29 -89 0
-29 -94 0
-34 -43 0
-34 -47 0
-34 -51 0
-34 -56 0
-34 -60 0
-34 -65 0
-34 -70 0
-34 -79 0
-34 -84 0
-34 -89 0
-34 -94 0
-43 -47 0
-43 -51 0
-43 -56 0
-43 -60 0
-43 -65 0
-43 -70 0
-43 -79 0
-43 -84 0
-43 -89 0
-43 -94 0
-47 -51 0
-47 -56 0
-47 -60 0
-47 -65 0
-47 -70 0
-47 -79 0
-47 -84 0
-47 -89 0
-47 -94 0
-51 -56 0
-51 -60 0
-51 -65 0
-51 -70 0
-51 -79 0
-51 -84 0
-51 -89 0
-51 -94 0
-56 -60 0
-56 -65 0
-56 -70 0
-56 -79 0
-56 -84 0
-56 -89 0
-56 -94 0
-60 -65 0
-60 -70 0
-60 -79 0
-60 -84 0
-60 -89 0
-60 -94 0
-65 -70 0
-65 -79 0
-65 -84 0
-65 -89 0
-65 -94 0
-70 -79 0
-70 -84 0
-70 -89 0
-70 -94 0
-79 -84 0
-79 -89 0
-79 -94 0
-84 -89 0
-84 -94 0
-89 -94 0
-5 -10 0
-5 -15 0
-5 -20 0
-5 -25 0
-5 -30 0
-5 -35 0
-5 -39 0
-5 -44 0
-5 -52 0
-5 -57 0
-5 -61 0
-5 -66 0
-5 -71 0
-5 -75 0
-5 -80 0
-5 -85 0
-5 -90 0
-5 -95 0
-10 -15 0
-10 -20 0
-10 -25 0
-10 -30 0
-10 -35 0
-10 -39 0
-10 -44 0
-10 -52 0
-10 -57 0
-10 -61 0
-10 -66 0
-10 -71 0
-10 -75 0
-10 -80 0
-10 -85 0
-10 -90 0
-10 -95 0
-15 -20 0
-15 -25 0
-15 -30 0
-15 -35 0
-15 -39 0
-15 -44 0
-15 -52 0
-15 -57 0
-15 -61 0
-15 -66 0
-15 -71 0
-15 -75 0
-15 -80 0
-15 -85 0
-15 -90 0
-15 -95 0
-20 -25 0
-20 -30 0
-20 -35 0
-20 -39 0
-20 -44 0
-20 -52 0
-20 -57 0
-20 -61 0
-20 -66 0
-20 -71 0
-20 -75 0
-20 -80 0
-20 -85 0
-20 -90 0
-20 -95 0
-25 -30 0
-25 -35 0
-25 -39 0
-25 -44 0
-25 -52 0
-25 -57 0
-25 -61 0
-25 -66 0
-25 -71 0
-25 -75 0
-25 -80 0
-25 -85 0
-25 -90 0
-25 -95 0
-30 -35 0
-30 -39 0
-30 -44 0
-30 -52 0
-30 -57 0
-30 -61 0
-30 -66 0
-30 -71 0
-30 -75 0
-30 -80 0
-30 -85 0
-30 -90 0
-30 -95 0
-35 -39 0
-35 -44 0
-35 -52 0
-35 -57 0
-35 -61 0
-35 -66 0
-35 -71 0
-35 -75 0
-35 -80 0
-35 -85 0
-35 -90 0
-35 -95 0
-39 -44 0
-39 -52 0
-39 -57 0
-39 -61 0
-39 -66 0
-39 -71 0
-39 -75 0
-39 -80 0
-39 -85 0
-39 -90 0
-39 -95 0
-44 -52 0
-44 -57 0
-44 -61 0
-44 -66 0
-44 -71 0
-44 -75 0
-44 -80 0
-44 -85 0
-44 -90 0
-44 -95 0
-52 -57 0
-52 -61 0
-52 -66 0
-52 -71 0
-52 -75 0
-52 -80 0
-52 -85 0
-52 -90 0
-52 -95 0
-57 -61 0
-57 -66 0
-57 -71 0
-57 -75 0
-57 -80 0
-57 -85 0
-57 -90 0
-57 -95 0
-61 -66 0
-61 -71 0
-61 -75 0
-61 -80 0
-61 -85 0
-61 -90 0
-61 -95 0
-66 -71 0
-66 -75 0
-66 -80 0
-66 -85 0
-66 -90 0
-66 -95 0
-71 -75 0
-71 -80 0
-71 -85 0
-71 -90 0
-71 -95 0
-75 -80 0
-75 -85 0
-75 -90 0
-75 -95 0
-80 -85 0
-80 -90 0
-80 -95 0
-85 -90 0
-85 -95 0
-90 -95 0